0 0 0 0
0 1 0 0
0 2 1 0
0 3 2 0
0 4 0 5
0 5 0 3
0 6 1 6
0 7 2 6
0 8 0 5
0 9 1 3
0 10 0 8
0 11 1 19
0 12 2 6
0 13 0 10
0 14 1 13
0 15 2 11
0 16 1 6
0 17 0 10
0 18 1 14
0 19 0 11
0 20 1 14
0 21 1 15
0 22 2 16
0 23 0 16
0 24 0 19
0 25 0 20
0 26 0 25
0 27 0 20
0 28 0 24
0 29 0 28
0 30 1 24
0 31 0 30
